JOBS = 1..3;
MACHINES = 1..6;
SPEED = 1;
time = array3d(JOBS,MACHINES,1..SPEED,[66,61,84,53,99,45,86,23,74,39,54,90,61,13,22,44,27,56]);
energy = array3d(JOBS,MACHINES,1..SPEED,[51,54,43,58,37,63,42,79,47,67,58,40,54,87,80,64,76,57]);
precedence = array2d(JOBS,MACHINES,[2,4,3,5,0,1,4,1,3,5,2,0,4,3,0,2,1,5]);
ME = 1;
TE = 168;
st_old = array2d(JOBS,MACHINES,[144,325,241,386,0,99,241,90,167,327,113,0,327,238,0,194,167,388]);
SpeedScaling = array2d(JOBS,MACHINES,[1,1,1,1,1,1,1,1,1,1,1,1,1,1,1,1,1,1]);
